40
2 0 1
2 1 1
3 0 1
3 1 1
4 1 1
4 2 1
5 1 1
5 2 1
5 4 1
6 2 1
6 3 1
6 4 1
6 5 1
7 0 1
7 2 1
7 4 1
7 6 1
8 2 1
8 3 1
8 7 1
9 0 1
9 1 1
9 2 1
9 3 1
10 1 1
10 5 1
10 9 1
11 3 1
11 6 1
11 9 1
12 0 1
12 1 1
12 5 1
12 6 1
12 7 1
12 9 1
12 10 1
13 1 1
13 9 1
14 0 1
14 2 1
14 7 1
14 8 1
14 10 1
15 3 1
15 4 1
15 5 1
15 8 1
15 9 1
15 12 1
15 13 1
15 14 1
16 0 1
16 1 1
16 2 1
16 3 1
16 4 1
16 5 1
16 6 1
16 9 1
16 11 1
16 12 1
16 14 1
17 2 1
17 11 1
17 14 1
17 15 1
18 0 1
18 4 1
18 6 1
18 7 1
18 10 1
18 11 1
18 13 1
18 16 1
19 0 1
19 1 1
19 2 1
19 3 1
19 5 1
19 11 1
19 13 1
19 14 1
19 15 1
20 1 1
20 2 1
20 4 1
20 5 1
20 15 1
20 17 1
20 18 1
21 3 1
21 4 1
21 5 1
21 6 1
21 10 1
21 13 1
21 15 1
21 16 1
21 18 1
22 4 1
22 7 1
22 9 1
22 10 1
22 12 1
22 13 1
22 19 1
22 21 1
23 4 1
23 5 1
23 6 1
23 7 1
23 9 1
23 11 1
23 12 1
23 14 1
23 17 1
23 18 1
23 19 1
23 20 1
24 2 1
24 8 1
24 11 1
24 13 1
24 14 1
24 15 1
24 16 1
24 17 1
24 22 1
24 23 1
25 0 1
25 1 1
25 2 1
25 5 1
25 6 1
25 8 1
25 9 1
25 10 1
25 12 1
25 14 1
25 16 1
25 17 1
25 18 1
25 19 1
25 20 1
25 22 1
25 24 1
26 0 1
26 1 1
26 3 1
26 4 1
26 5 1
26 7 1
26 8 1
26 9 1
26 10 1
26 13 1
26 18 1
26 21 1
26 22 1
26 23 1
26 25 1
27 3 1
27 4 1
27 6 1
27 7 1
27 8 1
27 9 1
27 10 1
27 12 1
27 13 1
27 15 1
27 17 1
27 18 1
27 19 1
27 22 1
27 23 1
27 26 1
28 0 1
28 1 1
28 2 1
28 4 1
28 7 1
28 10 1
28 11 1
28 12 1
28 13 1
28 15 1
28 16 1
28 19 1
28 22 1
28 24 1
29 1 1
29 3 1
29 7 1
29 8 1
29 10 1
29 12 1
29 14 1
29 16 1
29 17 1
29 19 1
29 21 1
29 22 1
29 23 1
29 27 1
29 28 1
30 2 1
30 4 1
30 6 1
30 7 1
30 8 1
30 9 1
30 11 1
30 14 1
30 15 1
30 19 1
30 20 1
30 21 1
30 22 1
30 23 1
30 25 1
30 27 1
30 28 1
30 29 1
31 0 1
31 1 1
31 3 1
31 4 1
31 5 1
31 10 1
31 12 1
31 14 1
31 17 1
31 18 1
31 19 1
31 20 1
31 23 1
31 24 1
31 27 1
32 2 1
32 6 1
32 7 1
32 9 1
32 11 1
32 12 1
32 14 1
32 19 1
32 20 1
32 21 1
32 22 1
32 24 1
32 25 1
32 26 1
32 29 1
32 31 1
33 0 1
33 2 1
33 4 1
33 5 1
33 6 1
33 8 1
33 11 1
33 12 1
33 13 1
33 16 1
33 18 1
33 21 1
33 24 1
33 26 1
33 27 1
33 28 1
33 29 1
34 4 1
34 5 1
34 6 1
34 8 1
34 9 1
34 10 1
34 14 1
34 15 1
34 16 1
34 17 1
34 23 1
34 24 1
34 27 1
34 29 1
34 30 1
34 32 1
35 1 1
35 2 1
35 5 1
35 6 1
35 12 1
35 13 1
35 17 1
35 20 1
35 21 1
35 23 1
35 24 1
35 27 1
35 29 1
35 30 1
35 31 1
35 32 1
35 33 1
36 0 1
36 1 1
36 2 1
36 4 1
36 6 1
36 7 1
36 8 1
36 9 1
36 13 1
36 14 1
36 15 1
36 16 1
36 17 1
36 18 1
36 21 1
36 22 1
36 23 1
36 24 1
36 26 1
36 29 1
36 32 1
36 33 1
36 35 1
37 0 1
37 3 1
37 4 1
37 9 1
37 10 1
37 12 1
37 14 1
37 15 1
37 18 1
37 20 1
37 21 1
37 23 1
37 28 1
37 31 1
37 33 1
38 2 1
38 3 1
38 5 1
38 6 1
38 7 1
38 12 1
38 13 1
38 14 1
38 15 1
38 17 1
38 18 1
38 23 1
38 26 1
38 30 1
38 33 1
38 34 1
38 36 1
39 1 1
39 3 1
39 7 1
39 8 1
39 9 1
39 11 1
39 12 1
39 13 1
39 14 1
39 15 1
39 16 1
39 17 1
39 19 1
39 23 1
39 25 1
39 26 1
39 30 1
39 31 1
39 32 1
39 34 1
39 35 1
39 36 1
39 38 1
